c FILE: myciel6.col
c SOURCE: Michael Trick (trick@cmu.edu)
c DESCRIPTION: Graph based on Mycielski transformation. 
c              Triangle free (clique number 2) but increasing
c              coloring number
p edge 95 755
b 7
e 2 1
e 3 2
e 4 1
e 5 3
e 5 4
e 6 2
e 6 4
e 7 1
e 7 3
e 8 2
e 8 5
e 9 1
e 9 5
e 10 3
e 10 4
e 11 6
e 11 7
e 11 8
e 11 9
e 11 10
e 12 2
e 12 4
e 12 7
e 12 9
e 13 1
e 13 3
e 13 6
e 13 8
e 14 2
e 14 5
e 14 7
e 14 10
e 15 1
e 15 5
e 15 6
e 15 10
e 16 3
e 16 4
e 16 8
e 16 9
e 17 2
e 17 4
e 17 11
e 18 1
e 18 3
e 18 11
e 19 2
e 19 5
e 19 11
e 20 1
e 20 5
e 20 11
e 21 3
e 21 4
e 21 11
e 22 6
e 22 7
e 22 8
e 22 9
e 22 10
e 23 12
e 23 13
e 23 14
e 23 15
e 23 16
e 23 17
e 23 18
e 23 19
e 23 20
e 23 21
e 23 22
e 24 2
e 24 4
e 24 7
e 24 9
e 24 13
e 24 15
e 24 18
e 24 20
e 25 1
e 25 3
e 25 6
e 25 8
e 25 12
e 25 14
e 25 17
e 25 19
e 26 2
e 26 5
e 26 7
e 26 10
e 26 13
e 26 16
e 26 18
e 26 21
e 27 1
e 27 5
e 27 6
e 27 10
e 27 12
e 27 16
e 27 17
e 27 21
e 28 3
e 28 4
e 28 8
e 28 9
e 28 14
e 28 15
e 28 19
e 28 20
e 29 2
e 29 4
e 29 11
e 29 13
e 29 15
e 29 22
e 30 1
e 30 3
e 30 11
e 30 12
e 30 14
e 30 22
e 31 2
e 31 5
e 31 11
e 31 13
e 31 16
e 31 22
e 32 1
e 32 5
e 32 11
e 32 12
e 32 16
e 32 22
e 33 3
e 33 4
e 33 11
e 33 14
e 33 15
e 33 22
e 34 6
e 34 7
e 34 8
e 34 9
e 34 10
e 34 17
e 34 18
e 34 19
e 34 20
e 34 21
e 35 2
e 35 4
e 35 7
e 35 9
e 35 23
e 36 1
e 36 3
e 36 6
e 36 8
e 36 23
e 37 2
e 37 5
e 37 7
e 37 10
e 37 23
e 38 1
e 38 5
e 38 6
e 38 10
e 38 23
e 39 3
e 39 4
e 39 8
e 39 9
e 39 23
e 40 2
e 40 4
e 40 11
e 40 23
e 41 1
e 41 3
e 41 11
e 41 23
e 42 2
e 42 5
e 42 11
e 42 23
e 43 1
e 43 5
e 43 11
e 43 23
e 44 3
e 44 4
e 44 11
e 44 23
e 45 6
e 45 7
e 45 8
e 45 9
e 45 10
e 45 23
e 46 12
e 46 13
e 46 14
e 46 15
e 46 16
e 46 17
e 46 18
e 46 19
e 46 20
e 46 21
e 46 22
e 47 24
e 47 25
e 47 26
e 47 27
e 47 28
e 47 29
e 47 30
e 47 31
e 47 32
e 47 33
e 47 34
e 47 35
e 47 36
e 47 37
e 47 38
e 47 39
e 47 40
e 47 41
e 47 42
e 47 43
e 47 44
e 47 45
e 47 46
e 48 2
e 48 4
e 48 7
e 48 9
e 48 13
e 48 15
e 48 18
e 48 20
e 48 25
e 48 27
e 48 30
e 48 32
e 48 36
e 48 38
e 48 41
e 48 43
e 49 1
e 49 3
e 49 6
e 49 8
e 49 12
e 49 14
e 49 17
e 49 19
e 49 24
e 49 26
e 49 29
e 49 31
e 49 35
e 49 37
e 49 40
e 49 42
e 50 2
e 50 5
e 50 7
e 50 10
e 50 13
e 50 16
e 50 18
e 50 21
e 50 25
e 50 28
e 50 30
e 50 33
e 50 36
e 50 39
e 50 41
e 50 44
e 51 1
e 51 5
e 51 6
e 51 10
e 51 12
e 51 16
e 51 17
e 51 21
e 51 24
e 51 28
e 51 29
e 51 33
e 51 35
e 51 39
e 51 40
e 51 44
e 52 3
e 52 4
e 52 8
e 52 9
e 52 14
e 52 15
e 52 19
e 52 20
e 52 26
e 52 27
e 52 31
e 52 32
e 52 37
e 52 38
e 52 42
e 52 43
e 53 2
e 53 4
e 53 11
e 53 13
e 53 15
e 53 22
e 53 25
e 53 27
e 53 34
e 53 36
e 53 38
e 53 45
e 54 1
e 54 3
e 54 11
e 54 12
e 54 14
e 54 22
e 54 24
e 54 26
e 54 34
e 54 35
e 54 37
e 54 45
e 55 2
e 55 5
e 55 11
e 55 13
e 55 16
e 55 22
e 55 25
e 55 28
e 55 34
e 55 36
e 55 39
e 55 45
e 56 1
e 56 5
e 56 11
e 56 12
e 56 16
e 56 22
e 56 24
e 56 28
e 56 34
e 56 35
e 56 39
e 56 45
e 57 3
e 57 4
e 57 11
e 57 14
e 57 15
e 57 22
e 57 26
e 57 27
e 57 34
e 57 37
e 57 38
e 57 45
e 58 6
e 58 7
e 58 8
e 58 9
e 58 10
e 58 17
e 58 18
e 58 19
e 58 20
e 58 21
e 58 29
e 58 30
e 58 31
e 58 32
e 58 33
e 58 40
e 58 41
e 58 42
e 58 43
e 58 44
e 59 2
e 59 4
e 59 7
e 59 9
e 59 23
e 59 25
e 59 27
e 59 30
e 59 32
e 59 46
e 60 1
e 60 3
e 60 6
e 60 8
e 60 23
e 60 24
e 60 26
e 60 29
e 60 31
e 60 46
e 61 2
e 61 5
e 61 7
e 61 10
e 61 23
e 61 25
e 61 28
e 61 30
e 61 33
e 61 46
e 62 1
e 62 5
e 62 6
e 62 10
e 62 23
e 62 24
e 62 28
e 62 29
e 62 33
e 62 46
e 63 3
e 63 4
e 63 8
e 63 9
e 63 23
e 63 26
e 63 27
e 63 31
e 63 32
e 63 46
e 64 2
e 64 4
e 64 11
e 64 23
e 64 25
e 64 27
e 64 34
e 64 46
e 65 1
e 65 3
e 65 11
e 65 23
e 65 24
e 65 26
e 65 34
e 65 46
e 66 2
e 66 5
e 66 11
e 66 23
e 66 25
e 66 28
e 66 34
e 66 46
e 67 1
e 67 5
e 67 11
e 67 23
e 67 24
e 67 28
e 67 34
e 67 46
e 68 3
e 68 4
e 68 11
e 68 23
e 68 26
e 68 27
e 68 34
e 68 46
e 69 6
e 69 7
e 69 8
e 69 9
e 69 10
e 69 23
e 69 29
e 69 30
e 69 31
e 69 32
e 69 33
e 69 46
e 70 12
e 70 13
e 70 14
e 70 15
e 70 16
e 70 17
e 70 18
e 70 19
e 70 20
e 70 21
e 70 22
e 70 35
e 70 36
e 70 37
e 70 38
e 70 39
e 70 40
e 70 41
e 70 42
e 70 43
e 70 44
e 70 45
e 71 2
e 71 4
e 71 7
e 71 9
e 71 13
e 71 15
e 71 18
e 71 20
e 71 47
e 72 1
e 72 3
e 72 6
e 72 8
e 72 12
e 72 14
e 72 17
e 72 19
e 72 47
e 73 2
e 73 5
e 73 7
e 73 10
e 73 13
e 73 16
e 73 18
e 73 21
e 73 47
e 74 1
e 74 5
e 74 6
e 74 10
e 74 12
e 74 16
e 74 17
e 74 21
e 74 47
e 75 3
e 75 4
e 75 8
e 75 9
e 75 14
e 75 15
e 75 19
e 75 20
e 75 47
e 76 2
e 76 4
e 76 11
e 76 13
e 76 15
e 76 22
e 76 47
e 77 1
e 77 3
e 77 11
e 77 12
e 77 14
e 77 22
e 77 47
e 78 2
e 78 5
e 78 11
e 78 13
e 78 16
e 78 22
e 78 47
e 79 1
e 79 5
e 79 11
e 79 12
e 79 16
e 79 22
e 79 47
e 80 3
e 80 4
e 80 11
e 80 14
e 80 15
e 80 22
e 80 47
e 81 6
e 81 7
e 81 8
e 81 9
e 81 10
e 81 17
e 81 18
e 81 19
e 81 20
e 81 21
e 81 47
e 82 2
e 82 4
e 82 7
e 82 9
e 82 23
e 82 47
e 83 1
e 83 3
e 83 6
e 83 8
e 83 23
e 83 47
e 84 2
e 84 5
e 84 7
e 84 10
e 84 23
e 84 47
e 85 1
e 85 5
e 85 6
e 85 10
e 85 23
e 85 47
e 86 3
e 86 4
e 86 8
e 86 9
e 86 23
e 86 47
e 87 2
e 87 4
e 87 11
e 87 23
e 87 47
e 88 1
e 88 3
e 88 11
e 88 23
e 88 47
e 89 2
e 89 5
e 89 11
e 89 23
e 89 47
e 90 1
e 90 5
e 90 11
e 90 23
e 90 47
e 91 3
e 91 4
e 91 11
e 91 23
e 91 47
e 92 6
e 92 7
e 92 8
e 92 9
e 92 10
e 92 23
e 92 47
e 93 12
e 93 13
e 93 14
e 93 15
e 93 16
e 93 17
e 93 18
e 93 19
e 93 20
e 93 21
e 93 22
e 93 47
e 94 24
e 94 25
e 94 26
e 94 27
e 94 28
e 94 29
e 94 30
e 94 31
e 94 32
e 94 33
e 94 34
e 94 35
e 94 36
e 94 37
e 94 38
e 94 39
e 94 40
e 94 41
e 94 42
e 94 43
e 94 44
e 94 45
e 94 46
e 95 48
e 95 49
e 95 50
e 95 51
e 95 52
e 95 53
e 95 54
e 95 55
e 95 56
e 95 57
e 95 58
e 95 59
e 95 60
e 95 61
e 95 62
e 95 63
e 95 64
e 95 65
e 95 66
e 95 67
e 95 68
e 95 69
e 95 70
e 95 71
e 95 72
e 95 73
e 95 74
e 95 75
e 95 76
e 95 77
e 95 78
e 95 79
e 95 80
e 95 81
e 95 82
e 95 83
e 95 84
e 95 85
e 95 86
e 95 87
e 95 88
e 95 89
e 95 90
e 95 91
e 95 92
e 95 93
e 95 94
